c Circuit-CNF generated by TG-PRO v1.0 (c) Huan Chen and Joao Marques-Silva
p cnf 11 18
1 2 0
1 3 0
-1 -2 -3 0
4 3 0
4 5 0
-4 -3 -5 0
2 6 0
2 7 0
-2 -6 -7 0
8 7 0
8 9 0
-8 -7 -9 0
3 10 0
3 8 0
-3 -10 -8 0
5 8 0
5 11 0
-5 -8 -11 0
